c User generated cnf file
p cnf 12 19
11 8 -4 0 
7 6 -10 0 
5 2 -10 0 
12 -2 5 0 
9 -3 6 0 
3 4 -12 0 
9 11 -12 0 
6 -10 5 0 
3 3 -9 0 
2 -1 9 0 
4 8 -3 0 
12 -3 7 0 
4 -6 6 0 
11 -10 12 0 
10 9 -1 0 
4 10 -8 0 
6 4 -2 0 
8 -3 8 0 
10 7 -11 0 
